Problem:    MixProduttivo
Rows:       4
Columns:    2
Non-zeros:  8
Status:     OPTIMAL
Objective:  guadagno = 420 (MAXimum)

   No.   Row name   St   Activity     Lower bound   Upper bound    Marginal
------ ------------ -- ------------- ------------- ------------- -------------
     1 limiteProduzione[1]
                    NU          6000                        6000          0.07 
     2 limiteProduzione[2]
                    B           2000                        4000 
     3 limiteProduzione[3]
                    B           6000                        8000 
     4 guadagno     B            420                             

   No. Column name  St   Activity     Lower bound   Upper bound    Marginal
------ ------------ -- ------------- ------------- ------------- -------------
     1 x[1]         NF             0                                     < eps
     2 x[2]         B          20000                             

Karush-Kuhn-Tucker optimality conditions:

KKT.PE: max.abs.err = 0.00e+000 on row 0
        max.rel.err = 0.00e+000 on row 0
        High quality

KKT.PB: max.abs.err = 0.00e+000 on row 0
        max.rel.err = 0.00e+000 on row 0
        High quality

KKT.DE: max.abs.err = 0.00e+000 on column 0
        max.rel.err = 0.00e+000 on column 0
        High quality

KKT.DB: max.abs.err = 1.73e-018 on column 1
        max.rel.err = 1.73e-018 on column 1
        High quality

End of output
